(set-logic QF_UF)
(declare-fun A0 () Bool)
(declare-fun A1 () Bool)
(declare-fun A2 () Bool)
(declare-fun A3 () Bool)
(declare-fun A4 () Bool)
(declare-fun A5 () Bool)
(declare-fun A6 () Bool)
(declare-fun A7 () Bool)
(declare-fun A8 () Bool)
(declare-fun A9 () Bool)
(declare-fun A10 () Bool)
(declare-fun A11 () Bool)
(declare-fun A12 () Bool)
(declare-fun A13 () Bool)
(declare-fun A14 () Bool)
(declare-fun A15 () Bool)
(declare-fun A16 () Bool)
(declare-fun A17 () Bool)
(declare-fun A18 () Bool)
(declare-fun A19 () Bool)
(declare-fun A20 () Bool)
(declare-fun A21 () Bool)
(declare-fun A23 () Bool)
(declare-fun A24 () Bool)
(assert (let ((.def_0 (not A14))) (let ((.def_1 (and A12 .def_0))) (let ((.def_2 (not .def_1))) (let ((.def_3 (not A19))) (let ((.def_4 (and .def_3 A23))) (let ((.def_5 (not .def_4))) (let ((.def_6 (and .def_5 .def_2))) (let ((.def_7 (= A4 A7))) (let ((.def_8 (not .def_7))) (let ((.def_9 (not A9))) (let ((.def_10 (= A2 .def_9))) (let ((.def_11 (or .def_10 .def_8))) (let ((.def_12 (not .def_11))) (let ((.def_13 (and .def_12 .def_6))) (let ((.def_14 (and A0 A0))) (let ((.def_15 (not .def_14))) (let ((.def_16 (not A6))) (let ((.def_17 (or .def_16 A5))) (let ((.def_18 (or .def_17 .def_15))) (let ((.def_19 (not .def_18))) (let ((.def_20 (not A15))) (let ((.def_21 (and .def_20 A6))) (let ((.def_22 (not A16))) (let ((.def_23 (= A19 .def_22))) (let ((.def_24 (not .def_23))) (let ((.def_25 (and .def_24 .def_21))) (let ((.def_26 (or .def_25 .def_19))) (let ((.def_27 (not .def_26))) (let ((.def_28 (and .def_27 .def_13))) (let ((.def_29 (not .def_28))) (let ((.def_30 (not A24))) (let ((.def_31 (or .def_30 A3))) (let ((.def_32 (not .def_31))) (let ((.def_33 (and A13 A15))) (let ((.def_34 (and .def_33 .def_32))) (let ((.def_35 (not .def_34))) (let ((.def_36 (not A10))) (let ((.def_37 (and A18 .def_36))) (let ((.def_38 (not A23))) (let ((.def_39 (not A20))) (let ((.def_40 (= .def_39 .def_38))) (let ((.def_41 (not .def_40))) (let ((.def_42 (and .def_41 .def_37))) (let ((.def_43 (and .def_42 .def_35))) (let ((.def_44 (or A0 A18))) (let ((.def_45 (not A17))) (let ((.def_46 (or .def_45 .def_30))) (let ((.def_47 (and .def_46 .def_44))) (let ((.def_48 (not .def_47))) (let ((.def_49 (not A13))) (let ((.def_50 (not A1))) (let ((.def_51 (or .def_50 .def_49))) (let ((.def_52 (not A3))) (let ((.def_53 (and .def_52 A10))) (let ((.def_54 (or .def_53 .def_51))) (let ((.def_55 (or .def_54 .def_48))) (let ((.def_56 (or .def_55 .def_43))) (let ((.def_57 (not .def_56))) (let ((.def_58 (or .def_57 .def_29))) (let ((.def_59 (and .def_49 .def_20))) (let ((.def_60 (not .def_59))) (let ((.def_61 (not A8))) (let ((.def_62 (and .def_61 .def_45))) (let ((.def_63 (and .def_62 .def_60))) (let ((.def_64 (or .def_9 A3))) (let ((.def_65 (and .def_50 .def_49))) (let ((.def_66 (or .def_65 .def_64))) (let ((.def_67 (not .def_66))) (let ((.def_68 (and .def_67 .def_63))) (let ((.def_69 (or .def_45 .def_9))) (let ((.def_70 (or A0 .def_16))) (let ((.def_71 (not .def_70))) (let ((.def_72 (or .def_71 .def_69))) (let ((.def_73 (not .def_72))) (let ((.def_74 (= .def_22 A16))) (let ((.def_75 (not A2))) (let ((.def_76 (and .def_22 .def_75))) (let ((.def_77 (and .def_76 .def_74))) (let ((.def_78 (not .def_77))) (let ((.def_79 (or .def_78 .def_73))) (let ((.def_80 (and .def_79 .def_68))) (let ((.def_81 (not .def_80))) (let ((.def_82 (and A19 A8))) (let ((.def_83 (not .def_82))) (let ((.def_84 (or .def_75 .def_30))) (let ((.def_85 (not .def_84))) (let ((.def_86 (or .def_85 .def_83))) (let ((.def_87 (not A7))) (let ((.def_88 (or .def_87 A2))) (let ((.def_89 (not .def_88))) (let ((.def_90 (not A4))) (let ((.def_91 (or .def_90 A4))) (let ((.def_92 (not .def_91))) (let ((.def_93 (or .def_92 .def_89))) (let ((.def_94 (not .def_93))) (let ((.def_95 (or .def_94 .def_86))) (let ((.def_96 (not .def_95))) (let ((.def_97 (or A2 A21))) (let ((.def_98 (not .def_97))) (let ((.def_99 (or A3 .def_90))) (let ((.def_100 (not .def_99))) (let ((.def_101 (and .def_100 .def_98))) (let ((.def_102 (= .def_20 A11))) (let ((.def_103 (not .def_102))) (let ((.def_104 (or .def_61 A7))) (let ((.def_105 (not .def_104))) (let ((.def_106 (and .def_105 .def_103))) (let ((.def_107 (not .def_106))) (let ((.def_108 (and .def_107 .def_101))) (let ((.def_109 (not .def_108))) (let ((.def_110 (or .def_109 .def_96))) (let ((.def_111 (or .def_110 .def_81))) (let ((.def_112 (or .def_111 .def_58))) (let ((.def_113 (not .def_112))) .def_113)))))))))))))))))))))))))))))))))))))))))))))))))))))))))))))))))))))))))))))))))))))))))))))))))))))))))))))))))))
(check-sat)
